(set-info :smt-lib-version 2.6)
(set-logic QF_S)
(set-info :source |
Generated by: Hongjian Jiang, Oliver Markgraf, Daniel Stan, Anthony W. Lin, Philipp Ruemmer
Generated on: 2025-04-11
Application: Using String Solvers to solve RMC problems encoded as CHC over Strings
Target solver: cvc5, OSTRICH, Z3, Z3alpha, Z3-noodler
Time limit: 60.0
Benchmarks are extracted by running HornStr https://arg-git.informatik.uni-kl.de/pub/string-chc-lib on all benchmarks
provided in the repository and gathering the string queries sent to the string solvers.
|)
(set-info :license "https://creativecommons.org/licenses/by/4.0/")
(set-info :category "industrial")
(set-info :status unknown)
(declare-fun varout () String)
(assert (let ((a!1 (re.* (re.union (re.union (str.to_re "r") (str.to_re "b"))
                           (str.to_re "n")))))
  (str.in_re varout a!1)))
(declare-fun varin () String)
(assert (let ((a!1 (re.* (re.union (re.union (str.to_re "r") (str.to_re "b"))
                           (str.to_re "n")))))
  (str.in_re varin a!1)))
(declare-fun X () String)
(declare-fun isin () Bool)
(declare-fun isout () Bool)
(assert (let ((a!1 (re.++ (re.++ (str.to_re "bn") (re.* (str.to_re "n")))
                  (str.to_re "r"))))
  (and (str.in_re X a!1) true (= X varin) isin (not isout))))
(assert (let ((a!1 (re.++ (str.to_re "r")
                  (re.++ (re.* (str.to_re "r")) (str.to_re "n"))))
      (a!2 (re.++ (str.to_re "r")
                  (re.++ (re.* (str.to_re "r")) (str.to_re "b")))))
(let ((a!3 (re.++ (str.to_re "b")
                  (re.++ (re.* (str.to_re "r")) (re.union (str.to_re "b") a!2))))
      (a!5 (re.++ (str.to_re "b")
                  (re.++ (re.* (str.to_re "r")) (re.union (str.to_re "n") a!1))))
      (a!9 (re.++ (str.to_re "n")
                  (re.++ (re.* (str.to_re "r")) (re.union (str.to_re "n") a!1))))
      (a!10 (re.++ (str.to_re "n")
                   (re.++ (re.* (str.to_re "r")) (re.union (str.to_re "b") a!2)))))
(let ((a!4 (re.* (re.union (re.union (str.to_re "r") (str.to_re "n")) a!3))))
(let ((a!6 (re.++ (re.union (re.union (str.to_re "r") (str.to_re "n")) a!3)
                  (re.++ a!4 a!5))))
(let ((a!7 (re.++ (re.++ (re.* (str.to_re "r")) (re.union (str.to_re "b") a!2))
                  (re.++ a!4 (re.union a!5 a!6))))
      (a!11 (re.union (re.union (re.union (str.to_re "r") (str.to_re "b")) a!9)
                      (re.++ a!10 (re.++ a!4 (re.union a!5 a!6))))))
(let ((a!8 (re.union (re.++ (re.* (str.to_re "r"))
                            (re.union (str.to_re "n") a!1))
                     a!7))
      (a!12 (re.++ (re.* a!11)
                   (re.union (str.to_re "") (re.++ a!11 (re.* a!11))))))
  (str.in_re varin (re.++ a!8 a!12)))))))))
(check-sat)
(exit)
